NAME: instance_1252
TYPE: TSP
DIMENSION: 20
EDGE_WEIGHT_TYPE: EUC_2D
NODE_COORD_SECTION
0 12.63 46.96
1 42.07 89.93
2 59.00 73.04
3 46.52 47.84
4 82.40 81.04
5 5.88 98.81
6 39.87 39.10
7 31.24 68.65
8 84.47 30.36
9 82.35 23.73
10 82.16 17.41
11 0.54 88.45
12 28.06 44.92
13 29.14 53.23
14 54.06 10.40
15 60.50 67.59
16 24.34 53.89
17 44.76 79.55
18 11.18 87.03
19 8.05 71.93
EOF
